Name: Lysergide
Synon: $:00in-source
DB#: WA001253
InChIKey: VAYOSLLFUXYJDT-RDTXWAMCSA-N
InChI: InChI=1S/C20H25N3O/c1-4-23(5-2)20(24)14-9-16-15-7-6-8-17-19(15)13(11-21-17)10-18(16)22(3)12-14/h6-9,11,14,18,21H,4-5,10,12H2,1-3H3/t14-,18-/m1/s1
Spectrum_type: MS1
Instrument_type: LC-ESI-Q
Instrument: ZQ, Waters
Ion_mode: P
Formula: C20H25N3O
MW: 323
ExactMass: 323.19976242
Comments: "SMILES=CCN(CC)C(=O)[C@H]1CN([C@@H]2CC3=CNC4=CC=CC(=C34)C2=C1)C" "cas=50-37-3" "InChI=InChI=1S/C20H25N3O/c1-4-23(5-2)20(24)14-9-16-15-7-6-8-17-19(15)13(11-21-17)10-18(16)22(3)12-14/h6-9,11,14,18,21H,4-5,10,12H2,1-3H3/t14-,18-/m1/s1" "computed SMILES=O=C(N(CC)CC)C1C=C2C=3C=CC=C4NC=C(C43)CC2N(C)C1" "accession=WA001253" "date=2016.01.19 (Created 2007.08.01, modified 2011.05.06)" "author=Nihon Waters K.K." "license=CC BY-NC" "exact mass=323.19976" "ionization=ESI" "retention time=12.600 min" "column=2.1 mm id - 3. 5{mu}m XTerra C18MS" "column temperature=35 C" "sampling cone=90 V" "find peak=ignore rel.int. < 5" "computed spectral entropy=3.036985578283362" "computed normalized entropy=0.7978079450029212" "SPLASH=splash10-0a59-0960000000-11eb40c6f02293a2e639" "submitter=Nihon Waters (Nihon Waters K.K.)" "MoNA Rating=4.444444444444445"
Num Peaks: 45
115 1.201201
128 2.402402
129 3.503504
130 0.800801
140 1.201201
141 1.201201
142 0.800801
152 5.905906
153 20.820821
154 12.112112
155 3.503504
156 1.601602
164 2.002002
165 5.105105
166 1.601602
167 22.322322
168 7.407407
169 1.201201
178 2.702703
179 2.702703
180 40.040040
181 18.418418
182 20.420420
183 2.702703
190 3.103103
191 16.116116
192 17.617618
193 15.715716
194 9.809810
195 4.704705
196 3.503504
197 6.306306
205 2.402402
206 2.702703
207 100.000000
208 49.849850
209 6.706707
210 0.800801
220 2.702703
221 13.313313
222 3.903904
223 14.514515
224 2.402402
235 0.800801
324 2.402402

