Name: LSD
Synon: $:00in-source
DB#: JP002800
InChIKey: VAYOSLLFUXYJDT-RDTXWAMCSA-N
InChI: InChI=1S/C20H25N3O/c1-4-23(5-2)20(24)14-9-16-15-7-6-8-17-19(15)13(11-21-17)10-18(16)22(3)12-14/h6-9,11,14,18,21H,4-5,10,12H2,1-3H3/t14-,18-/m1/s1
Spectrum_type: MS1
Instrument_type: EI-B
Instrument: Unknown
Ion_mode: P
Formula: C20H25N3O
MW: 323
ExactMass: 323.19976242
Comments: "SMILES=CCN(CC)C(=O)[C@H]1CN([C@@H]2CC3=CNC4=CC=CC(=C34)C2=C1)C" "InChI=InChI=1S/C20H25N3O/c1-4-23(5-2)20(24)14-9-16-15-7-6-8-17-19(15)13(11-21-17)10-18(16)22(3)12-14/h6-9,11,14,18,21H,4-5,10,12H2,1-3H3/t14-,18-/m1/s1" "computed SMILES=O=C(N(CC)CC)C1C=C2C=3C=CC=C4NC=C(C43)CC2N(C)C1" "accession=JP002800" "date=2016.01.19 (Created 2008.10.21, modified 2011.05.06)" "author=SASAKI S, TOYOHASHI UNIV. OF TECH." "license=CC BY-NC-SA" "exact mass=323.19976" "ion type=[M]+*" "computed spectral entropy=3.5983096882796306" "computed normalized entropy=0.718134423497019" "SPLASH=splash10-00di-2974000000-f1e2685ff289086cda8e" "submitter=University of Tokyo Team (Faculty of Engineering, University of Tokyo)" "MoNA Rating=3.75"
Num Peaks: 150
52 0.4
53 0.9
54 1
55 0.52
56 4.9
57 5
58 4.5
59 0.01
63 0.2
64 0.2
65 0.4
66 0.02
67 0.4
68 0.4
69 1
70 0.21
71 4.1
72 21.1
73 1.9
74 0.24
75 1
76 3.5
77 3.4
78 0.01
79 0.4
83 0.1
84 0.2
85 0.04
86 0.7
87 0.6
88 0.4
89 0.01
90 0.4
91 0.5
92 0.4
93 0.02
94 0.1
98 0.1
99 0.2
100 0.95
101 1.4
102 0.4
103 0.3
104 0.02
105 1.2
106 1.4
107 0.4
108 0.21
109 2.1
110 2.1
111 8.4
112 0.12
113 1.1
114 0.4
115 0.2
116 0.01
124 1.1
125 3.2
126 2
127 0.64
128 12
129 2.1
130 2.4
131 0.02
132 0.1
138 0.4
139 3.1
140 0.42
141 1.2
142 0.1
143 0.2
147 0.04
148 1.1
149 14.2
150 4.2
151 0.74
152 12
153 8.4
154 14.2
155 0.34
156 0.4
158 0.2
159 0.1
160 0.01
161 0.1
162 0.2
163 2.1
164 0.14
165 5.2
166 4.7
167 14.5
168 0.51
169 1.2
170 0.4
175 0.4
176 0.12
177 2.6
178 8.4
179 9.6
180 1.72
181 41.1
182 9
183 2.6
190 0.21
191 3.8
192 9.2
193 4.7
194 0.04
195 5.1
196 17.9
197 2.9
204 0.04
205 10.2
206 7.1
207 29.2
208 0.14
209 3.1
210 1.2
211 0.4
212 0.02
213 0.1
218 1.2
219 3.8
220 0.69
221 64.9
222 36.2
223 32.6
224 0.59
225 1.8
239 1.2
240 0.4
241 0.21
242 0.4
243 0.2
244 0.1
265 0.19
266 1
267 0.2
278 0.2
279 0.21
280 4.5
281 1.2
282 0.4
321 0.01
322 2.1
323 99.99
324 22.1
325 0.24
326 1
327 0.1

