##TITLE=Library Entry 3806
##JCAMPDX=Revision 4.10
##DATA TYPE=MASS SPECTRUM
##SAMPLE DESCRIPTION=DEA SWL / SWGDRUG Monograph available
##NAMES=SWGDRUG 3.10 10-27-21 edit
##CAS NAME=Ketamine
##MOLFORM=C13H16ClNO
##CAS REGISTRY NO=006740-88-1
##MP= -300
##BP= -300
##MW= 237
##$RETENTION INDEX=0
##$CONDENSED SPECTRUM=NO
##NPOINTS= 152
##XYDATA=(XY..XY)
    36         20
    37         20
    38         70
    39        601
    40        100
    41        681
    42        921
    43         80
    44        420
    45         10
    49         20
    50        310
    51        651
    52        160
    53        150
    54        230
    55        290
    56        330
    57        100
    58        120
    59        150
    60         30
    61         30
    62        100
    63        330
    64        100
    65        300
    66        130
    67        100
    68        240
    69         60
    70        280
    71         40
    72        180
    73        240
    74        150
    75        761
    76        320
    77        761
    78        160
    79        100
    80         50
    81         10
    82         30
    83         20
    84         40
    85         70
    86         60
    87        100
    88         80
    89        450
    90        160
    91        410
    92         20
    94         10
    95         10
    96         70
    98        240
    99        120
   100         60
   101        601
   102       1772
   103        601
   104        220
   105         70
   106         20
   107         30
   108         20
   109         10
   110         10
   111        330
   112         60
   113        180
   114        130
   115       1541
   116        921
   117        581
   118        220
   119         30
   123         70
   124         10
   125        661
   126        140
   127        390
   128        320
   129        200
   130        410
   131        330
   132        460
   133         60
   136         80
   137        400
   138       1772
   139        340
   140        550
   141        150
   142         90
   143        170
   144        691
   145        771
   146       1091
   147        130
   149        100
   150         30
   151        711
   152       1671
   153        420
   154        751
   155        100
   156         70
   157         40
   158         60
   159         20
   160         50
   161         10
   162         20
   163         10
   164         60
   165         40
   166        911
   167        530
   168        400
   169        170
   170         20
   171         30
   172         50
   173         60
   174        420
   175         70
   177         10
   178         60
   179         60
   180       9999
   181       1131
   182       3023
   183        390
   184         60
   192         40
   193         30
   194        210
   195         50
   196         90
   206         30
   207         20
   208        310
   209       1611
   210        310
   211        530
   212         80
   220         10
   221         10
   237         40
